words_hard_train/7166.qaiger
aag 75 16 0 1 59
2
4
8
10
16
18
22
24
32
34
38
42
46
50
54
58
150
6 3 4
12 9 11
14 6 12
20 17 19
26 23 25
28 20 26
30 14 28
36 33 35
40 36 39
44 40 43
48 44 47
52 48 51
56 52 55
60 56 59
62 57 58
64 61 63
66 64 5
68 53 54
70 69 57
72 71 2
74 67 73
76 70 3
78 49 50
80 79 53
82 80 19
84 77 83
86 41 42
88 87 45
90 88 25
92 45 46
94 93 49
96 94 17
98 91 97
100 89 24
102 33 34
104 13 103
106 32 9
108 107 10
110 109 35
112 104 111
114 37 38
116 115 41
118 116 23
120 112 119
122 101 121
124 117 22
126 122 125
128 98 127
130 95 16
132 129 131
134 81 18
136 132 135
138 84 137
140 74 139
142 65 4
144 141 143
146 30 145
148 31 144
150 147 149
i0 1 x1[6]
i1 1 x1[7]
i2 1 x1[0]
i3 1 x1[1]
i4 1 x1[4]
i5 1 x1[5]
i6 1 x1[2]
i7 1 x1[3]
i8 2 y1[0]
i9 2 y1[1]
i10 2 y1[2]
i11 2 y1[3]
i12 2 y1[4]
i13 2 y1[5]
i14 2 y1[6]
i15 2 y1[7]
o0 bv[0]
c
simplified
  <
    xor
      1
      subtract
        2 y1
        1
    unary minus
      1 x1
