words_hard_train/7166.qaiger.qdimacs
p cnf 75 178
a 1 2 4 5 8 9 11 12 0
e 3 6 7 10 13 14 15 16 17 18 19 20 21 22 23 24 25 26 27 28 29 30 31 32 33 34 35 36 37 38 39 40 41 42 43 44 45 46 47 48 49 50 51 52 53 54 55 56 57 58 59 60 61 62 63 64 65 66 67 68 69 70 71 72 73 74 75 0
1 -2 3 0
-1 -3 0
2 -3 0
4 5 6 0
-4 -6 0
-5 -6 0
-3 -6 7 0
3 -7 0
6 -7 0
8 9 10 0
-8 -10 0
-9 -10 0
11 12 13 0
-11 -13 0
-12 -13 0
-10 -13 14 0
10 -14 0
13 -14 0
-7 -14 15 0
7 -15 0
14 -15 0
16 17 18 0
-16 -18 0
-17 -18 0
-18 19 20 0
18 -20 0
-19 -20 0
-20 21 22 0
20 -22 0
-21 -22 0
-22 23 24 0
22 -24 0
-23 -24 0
-24 25 26 0
24 -26 0
-25 -26 0
-26 27 28 0
26 -28 0
-27 -28 0
-28 29 30 0
28 -30 0
-29 -30 0
28 -29 31 0
-28 -31 0
29 -31 0
30 31 32 0
-30 -32 0
-31 -32 0
-32 2 33 0
32 -33 0
-2 -33 0
26 -27 34 0
-26 -34 0
27 -34 0
34 28 35 0
-34 -35 0
-28 -35 0
35 -1 36 0
-35 -36 0
1 -36 0
33 36 37 0
-33 -37 0
-36 -37 0
-35 1 38 0
35 -38 0
-1 -38 0
24 -25 39 0
-24 -39 0
25 -39 0
39 26 40 0
-39 -40 0
-26 -40 0
-40 9 41 0
40 -41 0
-9 -41 0
38 41 42 0
-38 -42 0
-41 -42 0
20 -21 43 0
-20 -43 0
21 -43 0
43 22 44 0
-43 -44 0
-22 -44 0
-44 12 45 0
44 -45 0
-12 -45 0
22 -23 46 0
-22 -46 0
23 -46 0
46 24 47 0
-46 -47 0
-24 -47 0
-47 8 48 0
47 -48 0
-8 -48 0
45 48 49 0
-45 -49 0
-48 -49 0
44 -12 50 0
-44 -50 0
12 -50 0
16 -17 51 0
-16 -51 0
17 -51 0
6 51 52 0
-6 -52 0
-51 -52 0
-16 4 53 0
16 -53 0
-4 -53 0
53 -5 54 0
-53 -54 0
5 -54 0
54 17 55 0
-54 -55 0
-17 -55 0
-52 55 56 0
52 -56 0
-55 -56 0
18 -19 57 0
-18 -57 0
19 -57 0
57 20 58 0
-57 -58 0
-20 -58 0
-58 11 59 0
58 -59 0
-11 -59 0
-56 59 60 0
56 -60 0
-59 -60 0
50 60 61 0
-50 -61 0
-60 -61 0
58 -11 62 0
-58 -62 0
11 -62 0
-61 62 63 0
61 -63 0
-62 -63 0
-49 63 64 0
49 -64 0
-63 -64 0
47 -8 65 0
-47 -65 0
8 -65 0
64 65 66 0
-64 -66 0
-65 -66 0
40 -9 67 0
-40 -67 0
9 -67 0
-66 67 68 0
66 -68 0
-67 -68 0
-42 68 69 0
42 -69 0
-68 -69 0
-37 69 70 0
37 -70 0
-69 -70 0
32 -2 71 0
-32 -71 0
2 -71 0
70 71 72 0
-70 -72 0
-71 -72 0
-15 72 73 0
15 -73 0
-72 -73 0
15 -72 74 0
-15 -74 0
72 -74 0
73 74 75 0
-73 -75 0
-74 -75 0
75 0
